
Starting CP-SAT solver v9.15.6755
Parameters: random_seed: 2026073178 max_time_in_seconds: 2500 log_search_progress: true cp_model_presolve: true linearization_level: 2 num_search_workers: 4 cp_model_probing_level: 2 symmetry_level: 2

Initial satisfaction model '': (model_fingerprint: 0x8dd71ea06eee0b34)
#Variables: 724 (608 primary variables)
  - 724 Booleans in [0,1]
#kBoolAnd: 110 (#enforced: 110) (#literals: 330)
#kBoolOr: 110 (#enforced: 110) (#literals: 220)
#kExactlyOne: 87 (#literals: 261)
#kLinear1: 32 (#enforced: 6)
#kLinear2: 336 (#enforced: 336) (#complex_domain: 110)
#kLinear3: 1'600 (#enforced: 6)
#kLinearN: 1'132 (#enforced: 243) (#terms: 9'111)

Starting presolve at 0.00s
  6.80e-04s  0.00e+00d  [DetectDominanceRelations] 
  8.96e-03s  0.00e+00d  [PresolveToFixPoint] #num_loops=3 #num_dual_strengthening=1 
  4.19e-05s  0.00e+00d  [ExtractEncodingFromLinear] #potential_supersets=82 
  3.16e-04s  0.00e+00d  [DetectDuplicateColumns] 
  1.02e-04s  0.00e+00d  [DetectDuplicateConstraints] #duplicates=5 
[Symmetry] Graph for symmetry has 4'869 nodes and 15'718 arcs.
[Symmetry] Symmetry computation done. time: 0.00128362 dtime: 0.00179815
[SAT presolve] num removable Booleans: 220 / 626
[SAT presolve] num trivial clauses: 0
[SAT presolve] [0s] clauses:2'730 literals:7'422 vars:506 one_side_vars:66 simple_definition:1 singleton_clauses:0
[SAT presolve] [0.000227234s] clauses:2'729 literals:7'415 vars:506 one_side_vars:66 simple_definition:1 singleton_clauses:0
[SAT presolve] [0.000589179s] clauses:2'408 literals:6'910 vars:389 one_side_vars:68 simple_definition:24 singleton_clauses:0
  1.30e-04s  0.00e+00d  [DetectDuplicateConstraintsWithDifferentEnforcements] 
  5.82e-03s  2.72e-03d  [Probe] #probed=1'316 #equiv=3 #new_binary_clauses=1'451 
  6.02e-04s  6.02e-04d  [MaxClique] Merged 653 constraints with 1'423 literals into 547 constraints with 1'267 literals
  9.07e-04s  0.00e+00d  [DetectDominanceRelations] 
  3.36e-03s  0.00e+00d  [PresolveToFixPoint] #num_loops=1 #num_dual_strengthening=1 
  1.29e-03s  0.00e+00d  [ProcessAtMostOneAndLinear] 
  1.48e-04s  0.00e+00d  [DetectDuplicateConstraints] 
  1.06e-04s  0.00e+00d  [DetectDuplicateConstraintsWithDifferentEnforcements] 
  6.25e-03s  1.54e-04d  [DetectDominatedLinearConstraints] #relevant_constraints=848 #num_inclusions=728 #num_redundant=7 
  1.48e-04s  0.00e+00d  [DetectDifferentVariables] 
  8.39e-04s  9.12e-05d  [ProcessSetPPC] #relevant_constraints=3'203 #num_inclusions=230 
  3.32e-04s  3.43e-05d  [TransformClausesToExactlyOne] #num_amos=615 #num_clauses=1'757 #num_checked=1'757 
  5.93e-05s  0.00e+00d  [DetectEncodedComplexDomains] 
  5.79e-05s  0.00e+00d  [FindAlmostIdenticalLinearConstraints] 
  9.81e-04s  1.52e-03d  [FindBigAtMostOneAndLinearOverlap] 
  1.42e-03s  1.02e-03d  [FindBigVerticalLinearOverlap] #blocks=11 #saved_nz=520 
  3.28e-04s  5.25e-04d  [FindBigHorizontalLinearOverlap] #linears=476 
  3.73e-04s  2.78e-05d  [MergeClauses] #num_collisions=10 #num_merges=10 #num_saved_literals=41 
  8.74e-04s  0.00e+00d  [DetectDominanceRelations] 
  3.29e-03s  0.00e+00d  [PresolveToFixPoint] #num_loops=2 #num_dual_strengthening=1 
  8.63e-04s  0.00e+00d  [DetectDominanceRelations] 
  3.07e-03s  0.00e+00d  [PresolveToFixPoint] #num_loops=1 #num_dual_strengthening=1 
  1.65e-04s  0.00e+00d  [DetectDuplicateColumns] 
  1.20e-04s  0.00e+00d  [DetectDuplicateConstraints] 
[Symmetry] Graph for symmetry has 4'582 nodes and 14'062 arcs.
[Symmetry] Symmetry computation done. time: 0.00103137 dtime: 0.00138368
[SAT presolve] num removable Booleans: 102 / 506
[SAT presolve] num trivial clauses: 0
[SAT presolve] [0s] clauses:2'300 literals:6'651 vars:476 one_side_vars:162 simple_definition:35 singleton_clauses:0
[SAT presolve] [0.000226913s] clauses:2'300 literals:6'492 vars:476 one_side_vars:175 simple_definition:82 singleton_clauses:0
[SAT presolve] [0.00037546s] clauses:2'168 literals:6'196 vars:471 one_side_vars:199 simple_definition:65 singleton_clauses:0
  1.66e-04s  0.00e+00d  [DetectDuplicateConstraintsWithDifferentEnforcements] #without_enforcements=1 
  6.23e-03s  2.21e-03d  [Probe] #probed=1'316 #new_binary_clauses=1'398 
  5.29e-04s  5.05e-04d  [MaxClique] Merged 536 constraints with 1'198 literals into 526 constraints with 1'192 literals
  8.70e-04s  0.00e+00d  [DetectDominanceRelations] 
  3.13e-03s  0.00e+00d  [PresolveToFixPoint] #num_loops=1 #num_dual_strengthening=1 
  1.17e-03s  0.00e+00d  [ProcessAtMostOneAndLinear] 
  1.99e-04s  0.00e+00d  [DetectDuplicateConstraints] 
  1.26e-04s  0.00e+00d  [DetectDuplicateConstraintsWithDifferentEnforcements] 
  4.66e-04s  4.62e-05d  [DetectDominatedLinearConstraints] #relevant_constraints=841 #num_inclusions=259 
  1.39e-04s  0.00e+00d  [DetectDifferentVariables] 
  7.70e-04s  7.08e-05d  [ProcessSetPPC] #relevant_constraints=3'118 #num_inclusions=75 
  3.26e-04s  3.28e-05d  [TransformClausesToExactlyOne] #num_amos=528 #num_clauses=1'699 #num_checked=1'699 
  4.82e-05s  0.00e+00d  [DetectEncodedComplexDomains] 
  4.34e-05s  0.00e+00d  [FindAlmostIdenticalLinearConstraints] 
  7.57e-04s  9.47e-04d  [FindBigAtMostOneAndLinearOverlap] 
  1.12e-03s  7.27e-04d  [FindBigVerticalLinearOverlap] #blocks=3 #saved_nz=102 
  2.13e-04s  2.78e-04d  [FindBigHorizontalLinearOverlap] #linears=478 
  3.31e-04s  2.63e-05d  [MergeClauses] #num_collisions=73 #num_merges=73 #num_saved_literals=193 
  8.88e-04s  0.00e+00d  [DetectDominanceRelations] 
  3.17e-03s  0.00e+00d  [PresolveToFixPoint] #num_loops=2 #num_dual_strengthening=1 
  8.48e-04s  0.00e+00d  [DetectDominanceRelations] 
  3.10e-03s  0.00e+00d  [PresolveToFixPoint] #num_loops=1 #num_dual_strengthening=1 
  2.24e-04s  0.00e+00d  [DetectDuplicateColumns] 
  1.10e-04s  0.00e+00d  [DetectDuplicateConstraints] 
[Symmetry] Graph for symmetry has 4'393 nodes and 13'205 arcs.
[Symmetry] Symmetry computation done. time: 0.000972814 dtime: 0.00130386
[SAT presolve] num removable Booleans: 97 / 501
[SAT presolve] num trivial clauses: 0
[SAT presolve] [0s] clauses:2'153 literals:6'160 vars:471 one_side_vars:199 simple_definition:65 singleton_clauses:0
[SAT presolve] [0.00020903s] clauses:2'153 literals:6'160 vars:471 one_side_vars:199 simple_definition:65 singleton_clauses:0
[SAT presolve] [0.000272167s] clauses:2'153 literals:6'160 vars:471 one_side_vars:199 simple_definition:65 singleton_clauses:0
  1.77e-04s  0.00e+00d  [DetectDuplicateConstraintsWithDifferentEnforcements] 
  6.16e-03s  2.11e-03d  [Probe] #probed=1'316 #new_binary_clauses=1'397 
  5.69e-04s  5.02e-04d  [MaxClique] Merged 525 constraints with 1'182 literals into 524 constraints with 1'181 literals
  8.61e-04s  0.00e+00d  [DetectDominanceRelations] 
  3.18e-03s  0.00e+00d  [PresolveToFixPoint] #num_loops=1 #num_dual_strengthening=1 
  1.12e-03s  0.00e+00d  [ProcessAtMostOneAndLinear] 
  1.18e-04s  0.00e+00d  [DetectDuplicateConstraints] 
  1.07e-04s  0.00e+00d  [DetectDuplicateConstraintsWithDifferentEnforcements] 
  4.38e-04s  4.36e-05d  [DetectDominatedLinearConstraints] #relevant_constraints=844 #num_inclusions=257 
  1.44e-04s  0.00e+00d  [DetectDifferentVariables] 
  7.51e-04s  6.94e-05d  [ProcessSetPPC] #relevant_constraints=3'121 #num_inclusions=67 
  3.39e-04s  3.28e-05d  [TransformClausesToExactlyOne] #num_amos=524 #num_clauses=1'701 #num_checked=1'701 
  6.16e-05s  0.00e+00d  [DetectEncodedComplexDomains] 
  5.21e-05s  0.00e+00d  [FindAlmostIdenticalLinearConstraints] 
  7.49e-04s  8.61e-04d  [FindBigAtMostOneAndLinearOverlap] 
  1.03e-03s  7.05e-04d  [FindBigVerticalLinearOverlap] 
  2.11e-04s  2.78e-04d  [FindBigHorizontalLinearOverlap] #linears=478 
  3.39e-04s  2.63e-05d  [MergeClauses] #num_collisions=74 #num_merges=74 #num_saved_literals=195 
  8.81e-04s  0.00e+00d  [DetectDominanceRelations] 
  3.11e-03s  0.00e+00d  [PresolveToFixPoint] #num_loops=1 #num_dual_strengthening=1 
  4.04e-05s  0.00e+00d  [MergeNoOverlap] 
  7.83e-05s  0.00e+00d  [MergeNoOverlap2D] 

Presolve summary:
  - 36 affine relations were detected.
  - rule 'TODO dual: only one blocking constraint?' was applied 950 times.
  - rule 'TODO linear inclusion: superset is equality' was applied 316 times.
  - rule 'affine: new relation' was applied 36 times.
  - rule 'at_most_one: transformed into max clique' was applied 3 times.
  - rule 'bool_or: implications' was applied 75 times.
  - rule 'bool_or: only one literal' was applied 12 times.
  - rule 'bool_or: removed enforcement literal' was applied 557 times.
  - rule 'deductions: 864 stored' was applied 1 time.
  - rule 'duplicate: merged rhs of linear constraint' was applied 4 times.
  - rule 'duplicate: removed constraint' was applied 5 times.
  - rule 'duplicate: removed enforced constraint' was applied 1 time.
  - rule 'enforcement: false literal' was applied 28 times.
  - rule 'enforcement: true literal' was applied 2 times.
  - rule 'exactly_one: removed literals' was applied 32 times.
  - rule 'exactly_one: satisfied' was applied 3 times.
  - rule 'exactly_one: singleton' was applied 2 times.
  - rule 'exactly_one: size two' was applied 30 times.
  - rule 'incompatible linear: add implication' was applied 144 times.
  - rule 'linear + amo: empty after processing' was applied 6 times.
  - rule 'linear + amo: extracted enforcement literal' was applied 54 times.
  - rule 'linear + amo: trivial linear constraint' was applied 1 time.
  - rule 'linear inclusion: redundant containing constraint' was applied 3 times.
  - rule 'linear inclusion: redundant included constraint' was applied 3 times.
  - rule 'linear inclusion: sparsify superset' was applied 1 time.
  - rule 'linear matrix: common vertical rectangle' was applied 14 times.
  - rule 'linear1: always true' was applied 4 times.
  - rule 'linear1: x in domain' was applied 26 times.
  - rule 'linear2: convert ax + by != cte to clauses' was applied 260 times.
  - rule 'linear2: convert implied ax + by == cte to clauses' was applied 114 times.
  - rule 'linear2: implied ax + by = cte has only one solution' was applied 9 times.
  - rule 'linear: always true' was applied 414 times.
  - rule 'linear: empty' was applied 7 times.
  - rule 'linear: enforcement literal in expression' was applied 6 times.
  - rule 'linear: extracted at most one (max)' was applied 1 time.
  - rule 'linear: fixed or dup variables' was applied 883 times.
  - rule 'linear: negative clause' was applied 1'295 times.
  - rule 'linear: negative reified and' was applied 78 times.
  - rule 'linear: never in domain' was applied 6 times.
  - rule 'linear: positive at most one' was applied 30 times.
  - rule 'linear: reduced variable domains' was applied 15 times.
  - rule 'linear: remapped using affine relations' was applied 29 times.
  - rule 'presolve: 66 unused variables removed.' was applied 1 time.
  - rule 'presolve: iteration' was applied 3 times.
  - rule 'probing: bool_or reduced to implication' was applied 33 times.
  - rule 'probing: simplified clauses' was applied 9 times.
  - rule 'setppc: bool_or in at_most_one' was applied 7 times.
  - rule 'setppc: removed dominated constraints' was applied 99 times.
  - rule 'variables: both boolean and its negation fix the same variable' was applied 3 times.
  - rule 'variables: detect half reified value encoding' was applied 6 times.

Presolved satisfaction model '': (model_fingerprint: 0x4d41e650bc4297f9)
#Variables: 512 (437 primary variables)
  - 501 Booleans in [0,1]
  - 10 in [0,2]
  - 1 in [0,9]
#kAtMostOne: 74 (#literals: 281)
#kBoolAnd: 262 (#enforced: 262) (#literals: 712)
#kBoolAndClauses: 74 (#enforced: 74 #multi: 74) (#literals: 343)
#kBoolOr: 1'553 (#literals: 4'718)
#kExactlyOne: 58 (#literals: 214)
#kLinear3: 6 (#enforced: 4)
#kLinearN: 838 (#enforced: 134) (#terms: 5'538)
[Symmetry] Graph for symmetry has 4'165 nodes and 13'200 arcs.
[Symmetry] Symmetry computation done. time: 0.000971261 dtime: 0.00129004

Preloading model.
#Model   0.10s var:512/512 constraints:2865/2865

Starting search at 0.10s with 4 workers.
3 full problem subsolvers: [default_lp, max_lp, no_lp]
1 first solution subsolver: [fj]
2 interleaved subsolvers: [feasibility_pump, rins/rens]
2 helper subsolvers: [neighborhood_helper, synchronization_agent]

#Model  37.85s var:511/512 constraints:2863/2865
#Model  52.29s var:510/512 constraints:2863/2865
#Model 163.18s var:508/512 constraints:2859/2865
#Model 164.31s var:506/512 constraints:2855/2865
#Model 328.03s var:501/512 constraints:2818/2865
#Model 475.51s var:500/512 constraints:2803/2865
#Model 574.27s var:499/512 constraints:2801/2865
#Model 588.39s var:498/512 constraints:2784/2865
#Model 753.07s var:497/512 constraints:2783/2865
#Model 882.10s var:496/512 constraints:2783/2865
#Model 1004.87s var:495/512 constraints:2781/2865
#Model 2125.87s var:494/512 constraints:2759/2865
#Model 2165.18s var:493/512 constraints:2744/2865
#Model 2176.75s var:492/512 constraints:2726/2865
#Model 2184.63s var:490/512 constraints:2725/2865
#Model 2187.28s var:489/512 constraints:2725/2865
#Model 2190.79s var:487/512 constraints:2691/2865
#Model 2193.23s var:486/512 constraints:2673/2865
#Model 2193.40s var:485/512 constraints:2657/2865
#Model 2193.57s var:484/512 constraints:2638/2865
#Model 2197.77s var:473/512 constraints:2608/2865
#Model 2199.65s var:471/512 constraints:2566/2865
#Model 2199.69s var:445/512 constraints:2376/2865
#Done  2199.70s no_lp

Task timing                   n [     min,      max]      avg      dev     time         n [     min,      max]      avg      dev    dtime
        'default_lp':         1 [  36.66m,   36.66m]   36.66m   0.00ns   36.66m         2 [  2.22ms,   34.64m]   17.32m   17.32m   34.64m
  'feasibility_pump':     10902 [759.84us, 196.10ms]   1.63ms   1.89ms   17.75s     10901 [297.50us, 176.35ms] 316.51us   1.69ms    3.45s
                'fj':      7557 [110.08ms, 248.49ms] 144.28ms  10.80ms   18.17m      7557 [100.00ms, 100.12ms] 100.02ms  11.58us   12.60m
            'max_lp':         1 [  36.66m,   36.66m]   36.66m   0.00ns   36.66m         2 [ 75.90ms,   42.17m]   21.09m   21.09m   42.18m
             'no_lp':         1 [  36.66m,   36.66m]   36.66m   0.00ns   36.66m         2 [  2.07ms,    1.22h]   36.52m   36.52m    1.22h
         'rins/rens':      9477 [ 19.77ms, 297.08ms] 115.03ms  45.11ms   18.17m      9476 [289.91us, 100.31ms]  66.69ms  38.54ms   10.53m

Search stats     Bools   Conflicts    Branches  Restarts  BacktrackToRoot   Backtrack     BoolPropag  IntegerPropag
  'default_lp':    501     212'328   6'768'189     1'003        1'102'288   1'595'542     80'998'875     81'432'172
      'max_lp':    501     187'587   7'963'512       766        1'268'352   1'755'944     96'351'998     97'751'858
       'no_lp':    501  15'761'894  21'640'511    53'624          453'988  16'081'869  1'389'231'962    330'908'141

SAT formula      Fixed  Equiv  Total  VarLeft  BinaryClauses  PermanentClauses  TemporaryClauses
  'default_lp':     37     11    501      453          2'742            29'506             2'209
      'max_lp':     23     11    501      467          2'848            40'946             3'833
       'no_lp':    139     11    501      351          2'920            70'236             8'874

SAT stats        ClassicMinim   LitRemoved  LitRemovedBinary   LitLearned  LitForgotten   Subsumed
  'default_lp':       187'867    3'002'255           903'359    5'843'167     3'503'113     82'723
      'max_lp':       159'842    2'264'166           814'636    4'336'335     2'630'296     56'877
       'no_lp':    14'180'021  258'900'358        73'456'724  372'134'048   289'465'119  4'499'663

Vivification       Clauses  Decisions  LitTrue  Subsumed  LitRemoved  DecisionReused  Conflicts
  'default_lp':  1'164'646  6'292'895       11    20'297     232'165         369'214      2'636
      'max_lp':  1'308'655  7'471'950        2    20'728     241'448         392'540      2'608
       'no_lp':    337'102  2'802'107       17    20'501     288'714          88'816      1'640

Clause deletion    at_true  l_and_not(l)  to_binary  sub_conflict  sub_extra  sub_decisions  sub_eager  sub_vivify  sub_probing  sub_inpro  blocked  eliminated   forgotten    promoted   conflicts
    'default_lp':   16'708           912         55        81'477        495          3'168      1'246      20'297       12'540     28'069        0           0      98'211     410'777     212'328
        'max_lp':   10'124           571         29        56'109        555          1'937        768      20'728        9'085     26'143        0           0      98'683     388'799     187'587
         'no_lp':   68'313         1'005         98     4'413'134     34'660        226'829     86'529      20'501       24'337    161'506        0           0  10'650'254  35'736'092  15'761'894

Lp stats         Component  Iterations  AddedCuts  OPTIMAL  DUAL_F.  DUAL_U.
  'default_lp':          1  23'665'780     85'045  283'872        0  138'481
      'max_lp':          1  11'789'829    101'075   46'768  164'879   28'761

Lp dimension        Final dimension of first component
  'default_lp':    294 rows, 370 columns, 2376 entries
      'max_lp':  1413 rows, 512 columns, 11391 entries

Lp debug         CutPropag  CutEqPropag   Adjust  Overflow        Bad  BadScaling
  'default_lp':          0           14  138'480         0  2'200'435           0
      'max_lp':          0           24   28'751         0  2'857'975           0

Lp pool          Constraints  Updates  Simplif  Merged  Shortened  Split  Strengthened        Cuts/Call
  'default_lp':        9'861   17'124        0       0      1'969      0             1   85'045/186'093
      'max_lp':       12'291   37'771        0       0        693      0         2'094  101'075/242'247

Lp Cut            default_lp  max_lp
          CG_FF:       1'019     102
           CG_K:         546       7
          CG_KL:         439       3
           CG_R:       1'057      54
          CG_RB:          36       7
         CG_RBP:           6       2
         Clique:           -     206
             IB:         130      30
       MIR_1_FF:         673     941
        MIR_1_K:         201      29
       MIR_1_KL:         433      32
        MIR_1_R:         594     477
       MIR_1_RB:          12       1
      MIR_1_RLT:           -   9'443
       MIR_2_FF:         746   1'055
        MIR_2_K:         206     220
       MIR_2_KL:         365      79
        MIR_2_R:       1'061     962
       MIR_2_RB:          15       4
      MIR_2_RBP:          13       2
       MIR_3_FF:         379     219
        MIR_3_K:         105      31
       MIR_3_KL:         131      11
        MIR_3_R:         789     283
       MIR_3_RB:          20       7
      MIR_3_RBP:          15      11
       MIR_4_FF:         153      92
        MIR_4_K:          41      18
       MIR_4_KL:          54       2
        MIR_4_R:         822     245
       MIR_4_RB:          23       5
      MIR_4_RBP:          27       7
       MIR_5_FF:          56      33
        MIR_5_K:          17      14
       MIR_5_KL:          10       4
        MIR_5_R:         612     246
       MIR_5_RB:          27       7
      MIR_5_RBP:          15      10
       MIR_6_FF:          25      11
        MIR_6_K:           7       3
       MIR_6_KL:           1       -
        MIR_6_R:         445     242
       MIR_6_RB:          22       5
      MIR_6_RBP:          17      20
   ZERO_HALF_FF:         506     879
    ZERO_HALF_K:         134     129
   ZERO_HALF_KL:         130       2
    ZERO_HALF_R:      72'706  84'796
   ZERO_HALF_RB:          68       5
  ZERO_HALF_RBP:         136      82

LNS stats       Improv/Calls  Closed  Difficulty  TimeLimit
  'rins/rens':     9476/9476     50%    7.97e-01       0.10

LS stats                                    Batches  Restarts/Perturbs    LinMoves    GenMoves  CompoundMoves  Bactracks  WeightUpdates  ScoreComputed
                             'fj_restart':      503                 90  13'927'509           0              0          0     13'367'901     35'512'033
                    'fj_restart_compound':      556                121           0   7'151'827        329'356  3'411'006         15'262    109'348'731
                'fj_restart_compound_obj':      392                115           0   5'027'613        280'503  2'373'267          9'820     77'178'550
            'fj_restart_compound_perturb':      449                105           0   5'752'987        255'106  2'748'707         12'949     88'076'577
        'fj_restart_compound_perturb_obj':      799                112           0  10'437'786        286'732  5'075'302         28'146    157'170'382
                       'fj_restart_decay':      354                108  12'873'380           0              0          0        520'320     11'436'327
              'fj_restart_decay_compound':      302                100           0   4'063'534        608'096  1'727'429          3'964     60'198'141
          'fj_restart_decay_compound_obj':      393                113           0   5'419'829        799'339  2'309'970          5'063     78'341'921
      'fj_restart_decay_compound_perturb':      667                104           0   9'626'506      1'427'031  4'099'500          8'402    133'364'990
  'fj_restart_decay_compound_perturb_obj':      520                102           0   7'374'492      1'115'558  3'129'210          6'674    103'906'423
                   'fj_restart_decay_obj':      276                 89  10'020'918           0              0          0        405'544      8'936'140
               'fj_restart_decay_perturb':      427                111  15'556'652           0              0          0        626'285     13'810'902
           'fj_restart_decay_perturb_obj':      225                 96   8'176'570           0              0          0        330'564      7'266'780
                         'fj_restart_obj':      383                 94  10'934'571           0              0          0      9'846'305     26'523'761
                     'fj_restart_perturb':      524                109  14'681'859           0              0          0     13'878'420     38'162'452
                 'fj_restart_perturb_obj':      787                103  21'534'566           0              0          0     20'572'031     55'779'711

Solution repositories    Added  Queried  Synchro
    'alternative_path':      0        0        0
      'best_solutions':      0        0        0
   'fj solution hints':  1'664        0    1'664
        'lp solutions':  2'037    9'477    2'034
                'pump':      0        0

Improving bounds shared    Num  Sym
            'default_lp':   16    0
                'max_lp':   11    0
                 'no_lp':   73    0

Clauses shared    #Exported  #Imported  #BinaryRead  #BinaryTotal
   'default_lp':      5'439     84'006          724           871
       'max_lp':      5'660     81'795          437           871
        'no_lp':     81'521     11'833          871           871

LRAT_status: NA
CpSolverResponse summary:
status: INFEASIBLE
objective: NA
best_bound: NA
integers: 370
booleans: 501
conflicts: 15761894
branches: 21640511
propagations: 1389231962
integer_propagations: 330908141
restarts: 53624
lp_iterations: 0
walltime: 2199.73
usertime: 2199.73
deterministic_time: 10382.8
gap_integral: 0

{
  "board_size": 22,
  "parity_proved": 0,
  "target": 34,
  "child_id": 1078,
  "child_count": 2640,
  "partition": "unknown_pair_x_diag_plus_twos_x_diag_minus_twos",
  "build_seconds": 0.08226180076599121,
  "workers": 4,
  "requested_seed": 2026073178,
  "effective_seed": 2026073178,
  "main_diagonal_pair": [
    2,
    17
  ],
  "pair_index": 54,
  "diag_plus_twos": 17,
  "diag_minus_twos": 16,
  "pair_excess": 0,
  "residual_certificate_slack": 112,
  "analytic_minimum_line_defect": 0,
  "analytic_defect_details": {
    "row_costs": {
      "12": 6,
      "13": 3,
      "14": 0,
      "15": 0,
      "16": 0,
      "17": 0
    },
    "column_costs": {
      "12": 6,
      "13": 3,
      "14": 0,
      "15": 0,
      "16": 0,
      "17": 0
    },
    "plus_cost": 0,
    "minus_cost": 0,
    "row_column_minimum": 0
  },
  "maximal_line_constraints": 2455,
  "analytic_infeasible": false,
  "allowed_points": 242,
  "status": "INFEASIBLE",
  "proof_method": "cp_sat_all_lines_with_certificate_profile_cuts",
  "elapsed_seconds": 2199.7278015613556,
  "branches": 21640511,
  "conflicts": 15761894
}
